964
964
1088
1053
1053
1017
1057
1057
1057
999
999
1031
1026
1011
1064
1064
1027
1118
981
1024
1052
1022
1017
1013
883
991
991
1048
1015
1058
1024
1067
1067
1031
1071
1072
1044
989
989
1044
1044
938
938
938
938
938
911
982
964
786
786
916
982
982
920
918
918
933
908
908
913
913
913
913
913
913
913
913
944
937
937
764
764
937
974
978
1009
1009
961
961
961
953
953
854
854
854
854
854
840
840
840
854
854
854
854
854
854
854
854
854
